35 2000
2 176
6 191
11 191
7 161
10 163
2 127
2 163
2 170
6 18
7 127
11 176
11 104
7 130
7 127
7 104
10 161
3 155
10 115
10 116
4 146
2 179
5 162
6 130
6 170
2 155
10 115
9 127
3 113
3 179
8 113
9 199
2 162
4 146
8 116
11 199
